problems/csplib-prob056/sonet-models/noch/O2/lingeling/model_2_1-s3ring08-solution000001.eprime-solution
language ESSENCE' 1.0

letting network_ExplicitWithFlagsR6_Flags be [1, 1, 1, 1, 3, 0, 0; int(1..7)]
letting network_ExplicitWithFlagsR6_Values_ExplicitVarSizeWithDummy be
        [[1, 5, 12, 14, 14; int(1..5)], [1, 7, 13, 14, 14; int(1..5)], [2, 3, 8, 10, 12; int(1..5)],
         [2, 6, 10, 11, 12; int(1..5)], [4, 5, 8, 9, 11; int(1..5)], [1, 1, 1, 1, 1; int(1..5)],
         [1, 1, 1, 1, 1; int(1..5)]; int(1..7)]
