problems/csplib-prob056/sonet-models/noch/O2/lingeling/model_2_1-s3ring08-solution000001.solution
language Essence 1.3

letting network be
        mset({1, 5, 12}, {1, 7, 13}, {2, 3, 8, 10, 12}, {2, 6, 10, 11, 12}, {4, 5, 8, 9, 11}, {4, 5, 8, 9, 11},
             {4, 5, 8, 9, 11})
$ Here is a simple "visualisation" for the value above.
$  1  5 12
$  1  7 13
$  2  3  8 10 12
$  2  6 10 11 12
$  4  5  8  9 11
$  4  5  8  9 11
$  4  5  8  9 11

